<number of tasks>
1000

<cycle time>
1000

<order strength>
0,896


<task times>
1 33
2 179
3 36
4 102
5 267
6 36
7 247
8 44
9 153
10 99
11 112
12 211
13 73
14 117
15 104
16 150
17 42
18 199
19 87
20 102
21 97
22 90
23 24
24 47
25 186
26 244
27 48
28 110
29 239
30 124
31 134
32 192
33 78
34 127
35 140
36 37
37 244
38 110
39 40
40 158
41 40
42 142
43 276
44 86
45 76
46 244
47 24
48 41
49 314
50 24
51 78
52 133
53 28
54 167
55 83
56 119
57 152
58 58
59 199
60 136
61 67
62 31
63 302
64 32
65 145
66 213
67 27
68 256
69 154
70 62
71 169
72 71
73 65
74 104
75 216
76 164
77 156
78 127
79 274
80 238
81 268
82 93
83 310
84 190
85 191
86 137
87 93
88 196
89 134
90 100
91 313
92 315
93 30
94 201
95 102
96 116
97 109
98 163
99 227
100 187
101 60
102 268
103 71
104 179
105 92
106 304
107 138
108 127
109 123
110 110
111 41
112 166
113 81
114 249
115 78
116 311
117 138
118 102
119 175
120 213
121 253
122 84
123 271
124 119
125 76
126 39
127 97
128 122
129 234
130 256
131 91
132 157
133 98
134 110
135 86
136 53
137 111
138 186
139 121
140 21
141 141
142 35
143 61
144 34
145 194
146 90
147 123
148 55
149 110
150 60
151 70
152 254
153 36
154 261
155 171
156 165
157 148
158 188
159 218
160 33
161 56
162 182
163 70
164 112
165 38
166 61
167 198
168 158
169 25
170 42
171 193
172 185
173 118
174 171
175 38
176 181
177 246
178 166
179 78
180 153
181 79
182 147
183 119
184 165
185 24
186 88
187 116
188 173
189 264
190 121
191 75
192 172
193 85
194 140
195 121
196 86
197 147
198 232
199 198
200 194
201 128
202 133
203 85
204 187
205 38
206 54
207 110
208 216
209 85
210 76
211 192
212 191
213 134
214 107
215 150
216 159
217 146
218 114
219 107
220 200
221 407
222 88
223 292
224 128
225 147
226 197
227 309
228 144
229 126
230 187
231 273
232 102
233 165
234 89
235 234
236 168
237 60
238 203
239 318
240 116
241 203
242 244
243 211
244 115
245 71
246 176
247 30
248 199
249 66
250 243
251 88
252 141
253 90
254 85
255 182
256 112
257 90
258 148
259 167
260 85
261 257
262 127
263 136
264 128
265 86
266 63
267 139
268 243
269 181
270 67
271 282
272 145
273 213
274 102
275 206
276 112
277 151
278 42
279 122
280 101
281 234
282 115
283 173
284 317
285 231
286 212
287 217
288 188
289 106
290 103
291 154
292 105
293 217
294 110
295 36
296 164
297 123
298 75
299 285
300 89
301 26
302 84
303 98
304 117
305 331
306 105
307 108
308 36
309 78
310 227
311 45
312 92
313 222
314 99
315 149
316 55
317 84
318 187
319 82
320 150
321 54
322 203
323 129
324 91
325 182
326 95
327 71
328 186
329 345
330 264
331 174
332 128
333 111
334 26
335 146
336 223
337 104
338 69
339 105
340 116
341 87
342 124
343 117
344 91
345 136
346 63
347 80
348 69
349 221
350 39
351 213
352 23
353 104
354 172
355 94
356 26
357 67
358 72
359 125
360 95
361 105
362 203
363 79
364 41
365 217
366 80
367 156
368 86
369 391
370 105
371 29
372 151
373 85
374 113
375 319
376 96
377 97
378 144
379 86
380 197
381 308
382 235
383 35
384 146
385 231
386 54
387 36
388 101
389 71
390 131
391 112
392 45
393 118
394 45
395 48
396 164
397 327
398 204
399 248
400 61
401 144
402 151
403 182
404 179
405 90
406 102
407 127
408 40
409 126
410 110
411 47
412 301
413 138
414 68
415 48
416 29
417 219
418 54
419 261
420 88
421 212
422 76
423 77
424 46
425 74
426 83
427 55
428 66
429 111
430 120
431 125
432 96
433 98
434 99
435 113
436 204
437 203
438 287
439 197
440 33
441 172
442 192
443 70
444 53
445 209
446 340
447 154
448 169
449 262
450 51
451 291
452 104
453 108
454 109
455 83
456 115
457 153
458 35
459 142
460 77
461 20
462 111
463 171
464 154
465 154
466 89
467 296
468 81
469 152
470 35
471 58
472 73
473 158
474 93
475 141
476 68
477 175
478 231
479 279
480 73
481 81
482 194
483 136
484 195
485 100
486 258
487 62
488 180
489 251
490 44
491 93
492 210
493 133
494 81
495 160
496 114
497 171
498 79
499 114
500 31
501 148
502 85
503 64
504 249
505 65
506 358
507 286
508 254
509 315
510 193
511 89
512 253
513 149
514 179
515 85
516 156
517 140
518 283
519 57
520 159
521 164
522 100
523 42
524 83
525 31
526 190
527 110
528 228
529 130
530 199
531 79
532 95
533 98
534 90
535 177
536 131
537 22
538 248
539 20
540 208
541 93
542 213
543 221
544 164
545 127
546 121
547 130
548 129
549 180
550 81
551 161
552 135
553 195
554 196
555 58
556 164
557 117
558 61
559 232
560 115
561 23
562 294
563 159
564 38
565 179
566 141
567 299
568 103
569 46
570 49
571 126
572 140
573 56
574 87
575 306
576 85
577 37
578 264
579 109
580 176
581 81
582 239
583 137
584 63
585 194
586 37
587 106
588 114
589 152
590 101
591 215
592 166
593 224
594 112
595 136
596 99
597 181
598 320
599 251
600 275
601 128
602 75
603 151
604 49
605 102
606 160
607 127
608 91
609 70
610 170
611 196
612 66
613 205
614 86
615 272
616 90
617 87
618 74
619 51
620 222
621 150
622 30
623 202
624 37
625 86
626 115
627 218
628 66
629 262
630 30
631 39
632 219
633 258
634 233
635 109
636 167
637 104
638 88
639 131
640 174
641 102
642 178
643 95
644 224
645 317
646 66
647 101
648 69
649 140
650 104
651 328
652 64
653 52
654 139
655 223
656 41
657 108
658 150
659 39
660 157
661 30
662 64
663 89
664 324
665 200
666 58
667 61
668 167
669 175
670 197
671 136
672 98
673 147
674 212
675 63
676 120
677 183
678 82
679 232
680 88
681 117
682 145
683 156
684 237
685 97
686 140
687 33
688 350
689 309
690 112
691 183
692 44
693 28
694 231
695 181
696 30
697 256
698 95
699 61
700 100
701 31
702 213
703 347
704 24
705 102
706 124
707 68
708 106
709 197
710 217
711 253
712 177
713 104
714 209
715 272
716 24
717 39
718 277
719 30
720 193
721 84
722 133
723 54
724 27
725 176
726 94
727 155
728 53
729 23
730 81
731 131
732 151
733 116
734 47
735 77
736 87
737 95
738 183
739 151
740 137
741 318
742 270
743 142
744 132
745 50
746 301
747 46
748 66
749 51
750 139
751 106
752 170
753 169
754 217
755 163
756 41
757 41
758 113
759 192
760 301
761 151
762 137
763 72
764 272
765 95
766 48
767 104
768 133
769 116
770 37
771 248
772 50
773 260
774 129
775 300
776 127
777 54
778 212
779 169
780 272
781 40
782 277
783 25
784 83
785 102
786 144
787 180
788 286
789 225
790 31
791 198
792 239
793 61
794 225
795 254
796 230
797 193
798 157
799 106
800 225
801 112
802 108
803 69
804 196
805 36
806 103
807 149
808 130
809 114
810 187
811 23
812 78
813 61
814 47
815 32
816 298
817 197
818 282
819 52
820 46
821 72
822 128
823 191
824 118
825 121
826 229
827 224
828 208
829 76
830 235
831 200
832 43
833 48
834 34
835 148
836 144
837 428
838 198
839 76
840 21
841 126
842 223
843 291
844 243
845 245
846 126
847 103
848 32
849 61
850 137
851 63
852 232
853 150
854 140
855 135
856 44
857 180
858 99
859 156
860 197
861 168
862 182
863 191
864 258
865 127
866 179
867 42
868 234
869 206
870 65
871 228
872 177
873 225
874 208
875 104
876 225
877 141
878 159
879 243
880 58
881 172
882 36
883 143
884 97
885 52
886 96
887 41
888 75
889 242
890 271
891 232
892 44
893 73
894 192
895 53
896 274
897 87
898 172
899 107
900 25
901 116
902 106
903 120
904 251
905 87
906 228
907 351
908 121
909 67
910 168
911 138
912 131
913 112
914 150
915 101
916 78
917 184
918 30
919 263
920 132
921 192
922 119
923 79
924 68
925 36
926 50
927 293
928 242
929 239
930 100
931 165
932 198
933 301
934 139
935 100
936 205
937 112
938 230
939 291
940 23
941 147
942 152
943 131
944 51
945 50
946 210
947 66
948 37
949 257
950 86
951 129
952 202
953 33
954 168
955 181
956 111
957 271
958 199
959 54
960 196
961 217
962 33
963 71
964 112
965 112
966 92
967 210
968 111
969 305
970 50
971 156
972 106
973 155
974 45
975 121
976 156
977 186
978 120
979 181
980 89
981 273
982 214
983 219
984 44
985 112
986 76
987 184
988 161
989 201
990 80
991 105
992 217
993 50
994 134
995 27
996 58
997 45
998 69
999 145
1000 167

<precedence relations>
1,325
2,13
3,8
3,9
3,10
3,11
3,12
3,17
4,8
5,8
5,9
5,10
6,8
6,9
6,10
6,11
6,12
7,12
8,14
8,15
8,16
8,18
8,19
8,20
9,21
9,39
10,14
10,15
10,16
11,14
11,15
11,16
12,14
12,22
12,28
12,29
12,30
13,14
13,15
13,16
13,17
14,135
15,23
15,24
15,25
15,26
15,27
15,28
15,30
16,104
17,23
17,24
17,29
17,32
18,23
18,24
18,25
18,26
18,27
19,23
19,24
19,25
19,26
19,31
19,32
19,33
20,26
20,49
20,52
21,23
21,24
22,23
22,24
22,25
22,26
22,27
22,31
22,32
22,33
23,34
23,35
23,36
23,37
23,38
23,45
24,34
24,35
24,36
24,37
25,34
25,52
26,35
27,34
27,35
27,38
27,52
28,34
28,35
28,36
28,48
28,52
29,34
29,35
29,36
29,37
29,38
29,39
30,34
30,35
30,36
30,37
31,34
32,34
32,35
32,36
32,52
33,34
33,39
34,40
34,41
34,42
35,40
35,41
35,56
36,40
36,41
36,56
37,40
37,41
37,42
37,43
37,44
38,42
38,43
39,40
39,41
39,42
39,45
39,52
40,46
40,47
40,53
40,59
41,46
41,47
41,50
41,51
42,46
42,49
42,59
43,46
43,47
44,46
44,47
44,48
44,52
45,48
45,59
46,54
46,57
46,58
47,65
47,148
48,54
48,55
48,56
48,57
48,58
49,54
49,55
49,56
49,57
50,54
50,55
51,54
51,55
51,57
51,58
51,59
52,56
52,58
52,59
53,210
54,60
54,61
54,64
55,60
55,61
55,62
55,63
55,64
56,60
56,61
56,62
56,63
56,64
57,60
57,61
57,62
57,63
57,64
58,60
58,61
58,62
58,63
58,64
59,60
59,61
59,63
60,65
60,66
60,67
60,68
61,65
61,66
61,178
62,65
62,66
62,67
62,68
63,65
63,66
63,67
63,68
64,65
64,68
65,204
66,72
67,69
67,71
67,75
67,77
68,69
68,70
68,71
69,76
69,78
69,79
69,86
70,73
70,74
70,75
70,76
70,77
70,78
71,73
72,73
73,166
74,80
74,81
74,82
74,83
74,86
74,87
75,83
76,80
76,81
76,82
77,80
77,81
77,85
77,86
77,87
77,88
78,80
78,81
78,84
78,88
79,80
79,81
79,82
79,83
79,87
79,88
80,89
80,90
80,91
80,92
80,93
81,90
82,89
82,92
83,89
83,90
83,91
83,94
84,89
84,100
85,89
85,94
85,100
86,89
86,90
87,94
88,89
88,90
88,91
88,94
89,95
89,96
89,97
89,98
89,99
89,101
90,95
90,96
90,97
90,98
90,100
90,101
91,95
91,96
91,97
91,98
91,99
91,101
92,95
92,96
92,97
92,98
92,101
93,95
93,96
93,97
93,98
93,99
93,100
94,180
95,102
95,103
95,104
95,107
95,112
96,102
96,106
97,102
97,103
97,104
97,105
98,107
99,102
99,103
99,104
99,105
99,106
99,111
100,102
100,103
100,113
101,102
101,103
101,104
101,105
101,106
101,107
102,108
103,108
103,110
104,108
105,108
105,112
105,113
106,109
107,108
107,111
107,113
108,114
108,115
108,116
109,114
109,115
109,116
110,127
110,161
110,162
110,163
110,164
111,114
111,115
112,114
112,115
112,116
113,114
113,115
113,116
114,117
114,118
114,119
114,120
114,121
114,122
114,123
114,124
114,125
115,117
115,118
115,119
115,121
116,117
116,118
116,119
116,120
116,121
116,122
116,124
117,126
117,150
117,151
118,126
118,127
118,151
119,126
119,127
119,128
119,129
119,130
119,134
120,126
120,127
120,128
120,132
120,133
120,134
121,126
121,127
121,128
121,129
121,151
122,224
123,126
123,127
123,128
124,129
124,130
124,131
125,150
125,160
126,135
126,140
127,156
128,135
128,142
129,135
129,136
129,137
130,135
130,136
130,137
130,138
131,226
132,135
132,138
132,139
132,141
133,135
133,136
133,137
134,135
134,136
134,137
135,143
135,144
135,145
135,146
135,147
136,147
136,148
137,143
137,145
137,149
138,143
139,143
139,144
139,145
139,146
139,147
139,150
139,151
140,143
140,144
140,145
141,143
141,144
141,145
141,146
141,149
141,150
141,151
142,143
142,144
142,145
143,157
144,152
144,153
144,154
144,155
144,156
144,157
144,158
145,152
145,155
146,152
146,153
146,154
146,157
146,158
147,152
147,153
147,154
148,158
148,168
149,152
149,153
149,157
149,158
150,152
150,154
151,152
151,153
151,154
151,155
151,156
151,158
152,161
152,162
152,163
152,164
153,159
153,160
153,161
153,162
153,163
154,161
154,168
155,159
155,160
155,163
155,164
156,159
157,159
157,163
158,159
159,165
159,166
159,167
160,195
160,205
160,207
160,208
161,165
161,166
161,167
162,165
162,166
162,167
162,168
163,165
163,166
163,167
163,168
164,165
164,166
164,167
164,168
165,169
165,170
165,171
165,172
165,173
166,169
166,177
167,172
167,179
167,186
168,169
168,170
168,171
168,172
168,173
169,174
169,175
169,176
169,179
170,174
170,175
170,177
171,174
171,175
171,176
171,177
172,174
172,176
172,187
172,188
173,174
173,175
173,176
173,177
173,178
174,180
174,181
174,182
174,183
174,185
175,180
175,181
175,182
175,183
175,184
175,185
175,186
175,187
175,188
176,183
176,184
177,180
177,181
177,182
177,184
178,180
178,181
178,183
178,184
178,185
178,186
178,187
178,188
179,180
179,181
179,182
179,183
179,187
179,188
180,189
180,190
180,191
180,192
181,189
181,190
181,192
182,190
183,189
183,190
183,191
184,189
184,190
184,191
185,189
185,190
185,192
186,189
186,190
187,189
187,204
187,207
188,191
188,203
189,193
189,194
189,195
189,196
189,197
190,193
190,194
190,195
190,198
190,199
191,193
191,194
191,195
191,196
191,204
191,207
192,193
192,194
192,195
192,197
193,200
193,205
193,206
193,208
194,200
194,201
195,200
195,206
196,200
197,201
197,202
197,208
198,207
198,221
199,203
199,204
200,209
200,210
200,211
200,212
201,209
201,210
201,211
201,212
202,209
202,210
202,211
203,209
203,210
203,230
204,209
204,221
204,228
205,209
205,223
206,209
206,210
207,209
207,210
207,211
208,209
208,210
208,211
208,221
209,213
209,214
209,215
209,217
209,220
209,238
209,244
210,213
210,214
210,215
210,216
210,217
210,218
211,213
211,216
211,218
211,230
212,213
212,214
212,215
212,219
212,221
213,292
213,332
214,439
214,445
215,222
215,224
216,225
216,244
217,222
217,227
218,222
218,223
218,224
218,225
218,226
218,227
218,228
219,222
219,223
219,224
219,252
220,222
220,229
220,252
221,227
221,230
222,231
222,232
223,231
223,232
224,231
224,232
224,233
224,235
224,236
225,238
226,231
226,232
226,233
226,234
227,231
227,232
227,233
227,237
227,252
228,279
229,231
229,232
229,233
230,231
230,232
230,233
230,234
230,235
230,237
230,238
231,239
232,242
233,240
233,243
234,244
235,239
235,241
236,239
236,240
237,239
237,240
237,241
237,242
238,239
238,240
238,241
238,242
239,245
239,246
239,247
239,248
239,250
239,251
239,259
240,247
240,249
241,294
242,245
242,246
242,247
242,248
242,249
243,245
243,248
244,245
244,246
244,252
244,264
245,363
245,391
246,253
246,254
246,256
246,260
247,253
247,254
247,255
247,280
248,253
248,254
248,255
248,257
249,253
249,254
249,255
249,259
249,260
250,260
251,258
252,253
252,254
252,343
253,446
254,370
254,392
255,261
255,262
255,264
256,261
256,262
256,263
256,267
256,273
257,346
258,261
258,262
258,263
259,261
259,267
259,272
259,273
260,261
260,262
260,263
260,265
260,266
261,718
261,840
262,269
262,272
263,268
264,268
264,281
265,268
265,271
265,273
266,270
266,279
267,268
267,269
267,270
267,271
268,274
268,275
268,282
269,277
269,281
269,287
270,274
270,275
270,276
270,280
270,281
270,282
271,274
271,278
271,279
272,363
272,391
273,274
273,275
273,276
273,282
274,283
274,284
274,285
274,287
275,283
275,284
275,285
275,286
275,287
276,283
276,284
276,285
276,286
277,283
277,284
278,283
278,284
278,286
279,476
280,283
280,284
280,287
281,283
281,284
282,283
283,288
283,289
283,290
283,293
283,300
284,288
284,289
284,290
284,291
284,292
284,293
285,288
285,293
286,288
286,289
286,292
287,288
288,294
288,313
288,315
289,294
289,295
289,297
290,294
290,295
290,296
290,297
290,299
291,294
291,295
291,300
292,318
293,298
294,301
294,306
294,307
295,585
295,613
296,301
297,301
297,302
297,326
298,301
298,302
298,303
298,304
298,305
298,306
298,321
299,301
299,302
299,303
299,305
300,302
300,304
300,330
301,308
301,309
301,310
301,311
301,327
302,308
302,315
303,308
303,311
304,308
304,309
305,308
305,309
305,312
305,313
305,327
306,308
307,308
307,314
308,526
308,692
309,316
310,316
310,322
311,316
311,317
311,330
312,316
312,317
312,318
312,330
313,316
313,317
313,318
313,319
313,320
313,330
314,316
314,317
314,318
314,319
314,320
314,321
314,322
315,317
316,323
316,324
316,325
317,328
317,329
317,339
318,323
318,334
318,336
319,323
319,324
320,325
321,323
321,326
321,327
321,330
322,323
322,324
322,330
322,336
323,331
323,333
323,335
323,337
323,338
323,339
324,331
324,332
325,336
325,343
326,410
327,337
327,348
328,331
328,332
328,334
329,331
329,332
329,333
329,334
329,342
330,331
330,332
330,333
330,334
330,335
331,340
331,343
332,341
333,448
334,340
335,340
336,340
336,341
336,348
337,340
337,341
337,342
338,340
338,341
338,342
339,340
339,342
339,348
340,344
340,345
340,346
340,349
341,344
342,344
342,345
342,346
343,344
343,345
343,346
343,347
343,348
344,350
345,448
346,350
346,351
346,352
346,353
347,350
347,351
347,352
347,353
348,350
348,363
349,350
349,351
349,352
349,353
350,354
350,391
351,354
351,356
351,357
351,358
351,359
351,360
351,361
352,354
352,355
352,356
352,358
353,354
353,355
353,384
354,362
355,370
355,392
356,480
356,505
357,362
357,363
357,364
357,365
357,366
357,367
358,362
358,363
358,368
359,362
359,363
359,366
360,362
360,363
360,365
360,367
360,384
361,362
362,369
362,370
362,375
363,370
363,372
363,392
364,369
364,390
364,392
365,369
365,370
365,371
365,374
365,392
366,369
366,370
366,376
366,377
367,369
367,370
367,371
367,372
367,373
367,374
367,392
368,369
368,370
368,373
368,392
369,378
369,379
369,380
370,378
370,379
370,380
371,378
371,379
371,393
372,432
373,383
374,378
374,379
374,380
375,381
376,378
376,384
377,378
377,379
377,382
377,392
377,393
378,385
378,386
379,385
379,386
379,387
379,388
379,394
380,385
380,386
380,387
380,393
380,394
381,385
381,389
381,392
382,388
382,394
382,451
383,385
383,386
383,387
383,390
384,385
384,386
384,387
384,391
384,394
385,395
386,395
386,398
386,399
386,408
387,395
387,396
387,397
388,395
389,396
389,701
389,780
390,395
390,396
391,395
392,397
393,410
394,395
394,396
395,405
395,425
396,719
396,838
397,401
397,403
398,400
398,404
398,445
398,449
399,400
399,402
399,445
400,406
400,407
400,410
401,406
401,408
402,406
402,407
403,406
403,412
404,411
405,409
405,468
406,413
406,414
407,413
407,414
407,415
407,418
407,468
408,413
408,414
408,416
409,413
409,414
410,413
410,414
411,413
411,414
411,415
412,413
412,415
412,417
413,423
414,419
415,598
415,618
416,475
417,419
417,420
417,421
417,422
417,423
417,424
417,425
418,422
418,425
419,426
419,427
419,428
419,429
419,430
419,432
420,427
420,429
420,431
421,521
422,426
422,549
422,560
423,426
423,427
423,430
423,433
424,426
424,427
424,428
424,429
425,426
425,427
425,428
425,429
425,430
426,441
426,602
427,442
427,472
428,516
429,434
429,435
429,436
429,437
429,439
430,434
430,440
431,434
431,435
431,438
432,435
432,457
433,465
433,576
434,444
434,446
434,448
435,594
436,442
436,443
436,444
437,447
437,486
438,442
438,445
438,449
439,446
439,472
440,442
440,443
441,614
441,645
442,548
443,450
444,450
445,450
445,451
446,452
446,454
447,450
448,453
448,459
448,500
449,450
449,451
450,455
450,456
450,457
450,458
450,459
450,460
450,461
450,490
451,455
451,456
451,458
451,462
452,456
452,457
452,514
452,518
453,455
453,497
453,526
454,455
455,525
455,557
455,563
456,463
457,463
457,467
458,463
458,466
458,494
458,518
459,463
459,464
459,465
459,466
459,505
460,698
461,465
461,470
462,463
462,464
462,465
462,466
462,467
462,468
463,571
464,469
464,470
464,471
464,474
465,570
466,469
466,470
466,471
466,473
466,475
467,469
467,476
468,469
468,472
468,518
469,477
469,478
469,479
469,483
470,477
470,479
471,526
471,530
472,484
472,485
472,486
473,526
473,682
474,480
475,481
476,478
476,482
477,487
477,488
477,489
478,487
478,524
478,568
479,538
480,487
480,491
480,494
481,488
481,492
482,487
482,524
483,492
483,493
484,487
484,488
484,490
484,514
485,487
485,489
486,487
486,502
486,591
486,597
486,603
487,621
488,495
488,496
488,497
488,499
489,495
489,496
489,497
489,526
490,500
490,555
491,495
491,496
491,501
492,498
492,521
493,495
493,496
493,497
493,498
494,496
494,498
494,502
494,538
495,503
495,507
495,515
496,503
496,504
496,509
497,503
497,508
498,503
498,504
499,659
499,665
499,690
500,505
501,506
501,508
502,594
503,695
503,739
504,512
504,515
505,510
506,510
506,511
506,512
506,514
506,518
507,510
507,513
508,510
508,511
508,512
508,513
508,516
508,517
509,767
509,847
509,857
510,519
510,552
510,562
511,519
511,524
512,519
512,522
512,525
513,519
514,526
514,528
515,519
515,520
516,519
516,520
516,521
516,523
516,525
517,519
517,521
518,519
518,529
518,538
519,527
519,528
519,532
519,533
520,527
520,528
520,529
520,548
521,527
522,616
523,527
523,528
523,529
524,527
524,530
525,527
525,531
526,709
527,535
527,540
527,577
528,572
529,537
529,631
530,538
531,534
531,535
531,536
532,534
532,618
533,534
533,535
533,539
534,541
534,542
534,597
535,550
536,541
536,543
536,544
536,546
536,547
537,711
538,541
538,542
538,548
539,541
539,549
540,541
540,542
540,545
541,601
541,602
541,616
542,816
543,555
543,584
544,551
544,552
544,556
545,582
545,595
546,554
546,619
547,551
548,551
548,553
549,551
549,557
550,551
551,558
551,559
552,558
552,561
553,563
553,653
554,558
554,670
555,558
555,559
555,560
556,558
556,559
556,562
556,584
557,713
557,794
558,652
559,564
559,569
559,571
560,564
560,565
561,564
561,566
561,568
561,570
562,715
562,726
563,567
564,574
564,575
564,576
565,616
566,608
566,659
567,696
567,726
568,685
569,572
570,572
570,573
570,577
571,578
572,579
572,580
572,587
572,591
572,592
573,579
574,579
574,580
574,586
575,579
575,580
575,581
575,585
576,579
576,587
576,603
577,579
577,582
577,584
578,579
578,583
579,588
579,589
579,593
580,588
580,589
580,590
580,598
580,600
581,590
582,588
582,650
583,903
583,947
583,966
584,591
585,592
586,588
586,589
586,590
587,588
587,681
588,597
588,732
589,594
589,595
589,605
590,594
590,599
590,606
591,595
591,596
592,598
592,600
592,618
593,594
593,606
594,601
594,602
594,604
595,601
595,602
595,606
596,601
596,605
597,692
597,739
598,601
598,602
598,603
599,601
599,602
599,603
599,604
600,601
600,602
601,610
602,607
602,608
602,611
602,612
602,626
603,607
603,608
603,609
603,610
604,607
604,608
604,609
604,612
604,613
605,607
605,608
605,609
606,608
606,854
607,614
607,619
608,862
608,905
609,616
609,617
609,625
610,614
610,623
611,614
611,671
612,614
612,615
613,614
613,615
613,616
613,618
614,620
614,624
614,625
615,620
615,621
615,622
615,623
615,628
616,620
616,621
616,622
616,626
617,620
617,621
617,622
617,623
617,627
617,628
618,620
618,627
618,647
619,621
619,627
621,630
621,631
622,647
622,844
622,887
623,629
624,723
625,658
625,688
625,690
626,629
627,632
627,661
627,663
628,723
629,632
629,636
630,634
630,635
631,633
631,637
631,638
632,645
632,646
633,639
634,639
634,647
634,664
635,639
635,641
636,640
636,643
637,904
638,642
638,644
638,727
639,648
640,895
640,975
640,984
641,648
641,650
642,749
643,863
644,691
644,739
645,648
645,649
646,664
647,819
647,870
647,895
647,918
648,651
649,652
649,845
649,901
650,652
650,653
650,654
650,655
650,656
651,657
651,658
652,662
652,795
652,882
652,907
653,675
653,719
653,754
655,657
655,661
655,663
655,664
656,657
656,658
656,659
656,660
656,661
656,662
657,665
657,666
657,667
657,668
658,665
658,666
658,669
659,781
659,790
659,808
660,666
661,801
662,809
662,820
662,941
663,683
664,665
665,670
665,672
666,716
667,670
667,671
667,677
668,670
668,671
668,672
669,670
669,673
670,676
670,678
671,674
671,675
671,679
671,692
672,674
672,675
672,701
672,703
673,677
673,685
674,680
674,681
674,682
674,683
675,687
676,681
676,707
676,788
677,813
677,834
678,680
678,685
678,693
679,680
679,684
680,689
681,807
681,938
682,770
683,687
683,693
683,694
683,710
684,686
684,687
684,688
684,690
685,686
685,687
685,691
685,692
685,694
686,695
686,696
686,697
686,718
687,699
687,758
688,777
689,698
690,725
690,778
691,695
691,696
691,697
691,698
692,695
693,695
693,739
694,695
695,702
695,705
695,740
696,701
697,703
697,808
698,702
699,700
699,704
701,710
702,706
702,707
702,711
702,712
702,713
703,707
703,709
704,706
704,708
704,759
705,706
705,714
706,720
706,965
707,719
707,721
708,718
708,728
709,740
710,715
710,788
711,716
711,717
712,723
713,892
713,996
714,722
715,724
715,725
715,732
716,724
716,834
717,733
718,727
718,751
718,800
719,724
719,860
720,969
721,763
722,726
722,728
722,729
723,725
723,730
723,731
724,798
725,737
725,738
725,741
726,820
727,739
728,884
729,735
731,734
731,736
732,740
734,745
735,742
735,743
735,744
735,748
735,753
736,742
736,743
736,744
736,746
736,749
737,799
738,755
740,794
741,747
741,753
742,750
742,752
743,751
743,756
744,754
745,750
745,755
746,876
747,848
747,901
749,753
749,757
750,793
751,762
751,972
752,771
753,760
753,782
754,758
754,759
754,760
754,788
755,800
755,821
756,758
756,761
756,767
758,763
758,768
759,793
759,830
760,763
760,764
760,767
761,764
761,765
761,766
761,769
762,885
763,772
763,783
763,795
764,820
764,855
765,770
765,771
766,775
767,774
767,932
768,782
769,770
769,771
769,773
770,776
770,777
770,778
770,779
770,780
771,776
771,782
772,779
772,786
772,799
773,892
773,944
774,781
775,846
775,901
776,783
776,784
777,788
777,793
778,784
780,801
780,831
781,786
781,787
781,791
782,783
782,784
782,785
783,792
783,794
784,789
784,790
784,791
784,792
785,793
786,908
786,936
788,943
789,801
789,802
790,799
790,800
791,795
791,883
792,869
792,909
793,796
793,798
793,799
794,797
794,802
795,807
795,867
795,911
795,919
795,990
796,808
796,862
796,875
797,926
798,805
799,806
799,872
800,803
800,804
801,803
801,804
801,841
801,873
802,803
802,811
802,813
803,809
803,810
803,812
803,900
804,809
804,810
804,835
805,813
805,814
805,815
806,809
806,821
806,843
807,816
807,906
808,811
809,819
810,883
810,943
811,816
811,817
811,824
811,826
812,818
813,820
813,821
813,823
813,825
814,822
814,870
815,844
815,846
817,980
818,830
819,949
821,829
821,878
822,885
822,927
823,828
824,827
824,854
825,902
827,835
827,838
827,839
828,831
828,832
828,833
828,836
828,837
829,832
829,879
829,919
830,834
830,845
831,840
831,843
832,844
834,864
834,869
835,842
835,877
836,869
836,910
837,858
838,841
838,859
839,949
839,957
840,846
840,851
841,848
841,876
841,923
842,849
842,850
842,893
843,847
844,845
844,852
845,856
847,853
847,901
847,949
848,984
849,855
850,858
850,946
851,854
851,857
852,967
853,861
854,859
854,863
855,860
856,864
856,920
856,937
857,862
859,866
859,870
860,865
860,867
860,897
861,946
861,973
862,883
863,869
863,894
864,868
864,893
865,872
866,873
867,870
868,875
868,885
869,871
869,874
870,879
871,877
872,876
873,878
873,880
873,945
873,956
874,916
875,931
876,883
876,987
876,993
877,881
878,882
878,884
878,906
881,885
881,888
881,891
882,886
883,889
883,890
884,887
884,892
884,927
886,895
886,897
887,894
888,893
889,898
890,898
891,896
891,949
892,895
894,902
896,899
896,901
896,903
897,899
897,900
898,918
899,984
900,909
900,910
901,904
901,905
901,906
901,907
902,966
902,994
903,908
905,911
905,914
905,915
905,917
907,913
907,918
907,924
907,933
908,912
909,916
912,919
912,922
912,964
913,920
914,923
915,924
915,927
916,921
916,925
917,926
920,931
920,965
921,927
922,929
923,929
924,932
924,980
925,928
926,927
926,930
928,936
928,937
928,965
929,933
929,935
929,942
930,934
930,939
930,941
930,980
931,938
931,940
931,976
932,939
935,944
936,943
936,947
936,948
937,949
938,945
939,946
940,943
940,979
941,942
942,951
943,952
943,953
943,954
944,950
947,990
949,988
950,955
950,958
951,956
952,959
953,983
954,957
954,958
954,960
955,997
956,965
957,999
958,961
959,963
959,964
960,962
960,966
962,968
962,969
962,970
963,967
963,972
965,971
965,978
968,975
971,976
972,973
972,974
972,977
975,980
975,981
976,979
977,978
978,982
978,984
978,985
979,983
979,991
982,988
984,986
984,987
986,990
986,991
986,992
986,993
987,989
987,994
989,998
990,997
991,995
991,996
991,999
991,1000

<end>
